language Essence 1.3

$ bivincular mesh param file

$ pattern in paper, picture above
letting mesh_avoidance be { ( sequence(1,3,2), relation( (3, 1), (1, 2), (3, 2), (2, 2), (3, 3), (3, 2), (3, 4), (4, 2) ) } 

$ n Solution for avoidance should be:
$ Avoiding pattern
$ test

$ Contains pattern but breaks mesh
$ test
